FEATURES = {guides, hotspots, onboardingChecklist, resourceCenters, npsSurveys, engagementAnalytics, userIdentification, userTracking, adoptionTracker, audienceSegmentation, customAttributes, userSpecificAnalytics, customEvents, weeklyReports, errorLogging, customizableThemes, dynamicMaterialPersonalization, removeUserGuidingBranding, customCSS, materialScheduling, appearanceCustomization, googleAnalytics, webhooks, segment, mixpanel, zapier, hubspot, intercom, slack, woopra, knowledBaseIntegrations, roleManagement, permissionManagement, teams, domains, employeeOnboardingModule, troubleShooterAccess, helpCenter, userGuidingUniversity, emailSupport, liveChatSupport, dedicatedCustomerSuccessManager, implementationSupport};
USAGE_LIMITS = {activeGuidesLimit, activeHotspotsLimit, activeOnboardingChecklistsLimit, activeResourceCentersLimit, activeUsersLimit, teamMembersLimit, domainsLimit};
PLANS = {BASIC, PROFESSIONAL, CORPORATE};
ADDONS = {};

plans_prices = [99.0,399.0,699.0];
addons_prices = [];

plans_features = array2d(PLANS, FEATURES, [
    % BASIC
    1, 1, 1, 1, 1, 1, 1, 1, 0, 1, 1, 1, 1, 1, 0, 1, 1, 0, 1, 0, 0, 1, 1, 1, 1, 0, 0, 1, 1, 1, 0, 0, 1, 1, 1, 1, 1, 1, 0, 0,
    % PROFESSIONAL
    1, 1, 1, 1, 1, 1, 1, 1, 1, 1, 1, 1, 1, 1, 1, 1, 1, 1, 1, 1, 1, 1, 1, 1, 1, 1, 1, 1, 1, 1, 1, 1, 1, 1, 1, 1, 1, 1, 1, 1,
    % CORPORATE
    1, 1, 1, 1, 1, 1, 1, 1, 1, 1, 1, 1, 1, 1, 1, 1, 1, 1, 1, 1, 1, 1, 1, 1, 1, 1, 1, 1, 1, 1, 1, 1, 1, 1, 1, 1, 1, 1, 1, 1
]);
plans_usage_limits = array2d(PLANS, USAGE_LIMITS, [
    % BASIC
    20,20,2,1,2500,1,2,
    % PROFESSIONAL
    1000000000,1000000000,1000000000,1000000000,20000,5,5,
    % CORPORATE
    1000000000,1000000000,1000000000,1000000000,1000000000,1000000000,1000000000
]);

linked_features = array2d(USAGE_LIMITS, FEATURES, [
    % activeGuidesLimit
    1,0,0,0,0,0,0,0,0,0,0,0,0,0,0,0,0,0,0,0,0,0,0,0,0,0,0,0,0,0,0,0,0,0,0,0,0,0,0,0,
    % activeHotspotsLimit
    0,1,0,0,0,0,0,0,0,0,0,0,0,0,0,0,0,0,0,0,0,0,0,0,0,0,0,0,0,0,0,0,0,0,0,0,0,0,0,0,
    % activeOnboardingChecklistsLimit
    0,0,1,0,0,0,0,0,0,0,0,0,0,0,0,0,0,0,0,0,0,0,0,0,0,0,0,0,0,0,0,0,0,0,0,0,0,0,0,0,
    % activeResourceCentersLimit
    0,0,0,1,0,0,0,0,0,0,0,0,0,0,0,0,0,0,0,0,0,0,0,0,0,0,0,0,0,0,0,0,0,0,0,0,0,0,0,0,
    % activeUsersLimit
    0,0,0,0,0,0,0,0,0,0,0,0,0,0,0,0,0,0,0,0,0,0,0,0,0,0,0,0,0,0,0,0,0,0,0,0,0,0,0,0,
    % teamMembersLimit
    0,0,0,0,0,0,0,0,0,0,0,0,0,0,0,0,0,0,0,0,0,0,0,0,0,0,0,0,0,0,0,0,0,0,0,0,1,0,0,0,
    % domainsLimit
    0,0,0,0,0,0,0,0,0,0,0,0,0,0,0,0,0,0,0,0,0,0,0,0,0,0,0,0,0,0,0,0,0,0,0,0,0,1,0,0
]);

addons_features = array2d(ADDONS, FEATURES, [
]);
addons_usage_limits = array2d(ADDONS, USAGE_LIMITS, [
]);
addons_usage_limits_extensions = array2d(ADDONS, USAGE_LIMITS, [
]);
addons_available_for = array2d(ADDONS, PLANS, [
]);

addons_depends_on = array2d(ADDONS, ADDONS, [
]);